Problem:    ex5
Rows:       7
Columns:    4
Non-zeros:  27
Status:     OPTIMAL
Objective:  z = 1.4 (MAXimum)

   No.   Row name   St   Activity     Lower bound   Upper bound    Marginal
------ ------------ -- ------------- ------------- ------------- -------------
     1 z            B            1.4                             
     2 r[1]         NU             6                           6          0.15 
     3 r[2]         NU            10                          10          0.05 
     4 r[3]         B             10                          11 
     5 r[4]         B              6                           7 
     6 r[5]         B              4                           8 
     7 r[6]         B              8                          12 

   No. Column name  St   Activity     Lower bound   Upper bound    Marginal
------ ------------ -- ------------- ------------- ------------- -------------
     1 x[1]         B            0.2             0               
     2 x[2]         NL             0             0                        -3.5 
     3 x[3]         B            0.2             0               
     4 x[4]         NL             0             0                        -3.5 

Karush-Kuhn-Tucker optimality conditions:

KKT.PE: max.abs.err = 1.78e-15 on row 2
        max.rel.err = 1.37e-16 on row 2
        High quality

KKT.PB: max.abs.err = 0.00e+00 on row 0
        max.rel.err = 0.00e+00 on row 0
        High quality

KKT.DE: max.abs.err = 0.00e+00 on column 0
        max.rel.err = 0.00e+00 on column 0
        High quality

KKT.DB: max.abs.err = 0.00e+00 on row 0
        max.rel.err = 0.00e+00 on row 0
        High quality

End of output
